15 50
6 11
2 11
8 11
1 3
5 7
4 5
2 7
6 10
5 8
0 6
11 12
10 13
7 12
2 6
0 1
7 14
3 11
3 7
6 8
9 13
2 14
4 6
6 7
1 5
4 11
13 14
4 14
2 12
1 8
7 9
0 14
5 11
10 12
6 9
1 14
6 14
8 13
6 13
0 10
8 14
5 13
4 8
9 10
11 13
4 9
9 11
3 10
2 10
0 9
10 14
